(set-info :min-time 107.032399742)
; Start decls (43)
(declare-fun b10 () (_ FloatingPoint 8 24))
(declare-fun b101 () (_ FloatingPoint 8 24))
(declare-fun b104 () (_ FloatingPoint 8 24))
(declare-fun b107 () (_ FloatingPoint 8 24))
(declare-fun b11 () (_ FloatingPoint 8 24))
(declare-fun b110 () (_ FloatingPoint 8 24))
(declare-fun b113 () (_ FloatingPoint 8 24))
(declare-fun b116 () (_ FloatingPoint 8 24))
(declare-fun b119 () (_ FloatingPoint 8 24))
(declare-fun b122 () (_ FloatingPoint 8 24))
(declare-fun b125 () (_ FloatingPoint 8 24))
(declare-fun b128 () (_ FloatingPoint 8 24))
(declare-fun b131 () (_ FloatingPoint 8 24))
(declare-fun b14 () (_ FloatingPoint 8 24))
(declare-fun b17 () (_ FloatingPoint 8 24))
(declare-fun b20 () (_ FloatingPoint 8 24))
(declare-fun b219 () (_ FloatingPoint 8 24))
(declare-fun b23 () (_ FloatingPoint 8 24))
(declare-fun b26 () (_ FloatingPoint 8 24))
(declare-fun b29 () (_ FloatingPoint 8 24))
(declare-fun b32 () (_ FloatingPoint 8 24))
(declare-fun b35 () (_ FloatingPoint 8 24))
(declare-fun b38 () (_ FloatingPoint 8 24))
(declare-fun b41 () (_ FloatingPoint 8 24))
(declare-fun b44 () (_ FloatingPoint 8 24))
(declare-fun b47 () (_ FloatingPoint 8 24))
(declare-fun b50 () (_ FloatingPoint 8 24))
(declare-fun b53 () (_ FloatingPoint 8 24))
(declare-fun b56 () (_ FloatingPoint 8 24))
(declare-fun b59 () (_ FloatingPoint 8 24))
(declare-fun b62 () (_ FloatingPoint 8 24))
(declare-fun b65 () (_ FloatingPoint 8 24))
(declare-fun b68 () (_ FloatingPoint 8 24))
(declare-fun b71 () (_ FloatingPoint 8 24))
(declare-fun b74 () (_ FloatingPoint 8 24))
(declare-fun b77 () (_ FloatingPoint 8 24))
(declare-fun b80 () (_ FloatingPoint 8 24))
(declare-fun b83 () (_ FloatingPoint 8 24))
(declare-fun b86 () (_ FloatingPoint 8 24))
(declare-fun b89 () (_ FloatingPoint 8 24))
(declare-fun b92 () (_ FloatingPoint 8 24))
(declare-fun b95 () (_ FloatingPoint 8 24))
(declare-fun b98 () (_ FloatingPoint 8 24))
; End decls
; Start constraints (81)
(assert (fp.lt b11 b219))
(assert (let ((a!1 (fp.div roundNearestTiesToEven
                   (fp.div roundNearestTiesToEven
                           (fp.div roundNearestTiesToEven
                                   (fp.div roundNearestTiesToEven b10 b11)
                                   b14)
                           b17)
                   b20)))
(let ((a!2 (fp.div roundNearestTiesToEven
                   (fp.div roundNearestTiesToEven
                           (fp.div roundNearestTiesToEven
                                   (fp.div roundNearestTiesToEven a!1 b23)
                                   b26)
                           b29)
                   b32)))
(let ((a!3 (fp.div roundNearestTiesToEven
                   (fp.div roundNearestTiesToEven
                           (fp.div roundNearestTiesToEven
                                   (fp.div roundNearestTiesToEven a!2 b35)
                                   b38)
                           b41)
                   b44)))
(let ((a!4 (fp.div roundNearestTiesToEven
                   (fp.div roundNearestTiesToEven
                           (fp.div roundNearestTiesToEven
                                   (fp.div roundNearestTiesToEven a!3 b47)
                                   b50)
                           b53)
                   b56)))
(let ((a!5 (fp.div roundNearestTiesToEven
                   (fp.div roundNearestTiesToEven
                           (fp.div roundNearestTiesToEven
                                   (fp.div roundNearestTiesToEven a!4 b59)
                                   b62)
                           b65)
                   b68)))
(let ((a!6 (fp.div roundNearestTiesToEven
                   (fp.div roundNearestTiesToEven
                           (fp.div roundNearestTiesToEven
                                   (fp.div roundNearestTiesToEven a!5 b71)
                                   b74)
                           b77)
                   b80)))
(let ((a!7 (fp.div roundNearestTiesToEven
                   (fp.div roundNearestTiesToEven
                           (fp.div roundNearestTiesToEven
                                   (fp.div roundNearestTiesToEven a!6 b83)
                                   b86)
                           b89)
                   b92)))
(let ((a!8 (fp.div roundNearestTiesToEven
                   (fp.div roundNearestTiesToEven
                           (fp.div roundNearestTiesToEven
                                   (fp.div roundNearestTiesToEven a!7 b95)
                                   b98)
                           b101)
                   b104)))
(let ((a!9 (fp.div roundNearestTiesToEven
                   (fp.div roundNearestTiesToEven
                           (fp.div roundNearestTiesToEven
                                   (fp.div roundNearestTiesToEven a!8 b107)
                                   b110)
                           b113)
                   b116)))
(let ((a!10 (fp.div roundNearestTiesToEven
                    (fp.div roundNearestTiesToEven
                            (fp.div roundNearestTiesToEven
                                    (fp.div roundNearestTiesToEven a!9 b119)
                                    b122)
                            b125)
                    b128)))
  (fp.lt a!10 b131))))))))))))
(assert (fp.leq b131 b11))
(assert (fp.lt b14 b219))
(assert (fp.leq b131 b14))
(assert (fp.lt b17 b219))
(assert (fp.leq b131 b17))
(assert (fp.lt b20 b219))
(assert (fp.leq b131 b20))
(assert (fp.lt b23 b219))
(assert (fp.leq b131 b23))
(assert (fp.lt b26 b219))
(assert (fp.leq b131 b26))
(assert (fp.lt b29 b219))
(assert (fp.leq b131 b29))
(assert (fp.lt b32 b219))
(assert (fp.leq b131 b32))
(assert (fp.lt b35 b219))
(assert (fp.leq b131 b35))
(assert (fp.lt b38 b219))
(assert (fp.leq b131 b38))
(assert (fp.lt b41 b219))
(assert (fp.leq b131 b41))
(assert (fp.lt b44 b219))
(assert (fp.leq b131 b44))
(assert (fp.lt b47 b219))
(assert (fp.leq b131 b47))
(assert (fp.lt b50 b219))
(assert (fp.leq b131 b50))
(assert (fp.lt b53 b219))
(assert (fp.leq b131 b53))
(assert (fp.lt b56 b219))
(assert (fp.leq b131 b56))
(assert (fp.lt b59 b219))
(assert (fp.leq b131 b59))
(assert (fp.lt b62 b219))
(assert (fp.leq b131 b62))
(assert (fp.lt b65 b219))
(assert (fp.leq b131 b65))
(assert (fp.lt b68 b219))
(assert (fp.leq b131 b68))
(assert (fp.lt b71 b219))
(assert (fp.leq b131 b71))
(assert (fp.lt b74 b219))
(assert (fp.leq b131 b74))
(assert (fp.lt b77 b219))
(assert (fp.leq b131 b77))
(assert (fp.lt b80 b219))
(assert (fp.leq b131 b80))
(assert (fp.lt b83 b219))
(assert (fp.leq b131 b83))
(assert (fp.lt b86 b219))
(assert (fp.leq b131 b86))
(assert (fp.lt b89 b219))
(assert (fp.leq b131 b89))
(assert (fp.lt b92 b219))
(assert (fp.leq b131 b92))
(assert (fp.lt b95 b219))
(assert (fp.leq b131 b95))
(assert (fp.lt b98 b219))
(assert (fp.leq b131 b98))
(assert (fp.lt b101 b219))
(assert (fp.leq b131 b101))
(assert (fp.lt b104 b219))
(assert (fp.leq b131 b104))
(assert (fp.lt b107 b219))
(assert (fp.leq b131 b107))
(assert (fp.lt b110 b219))
(assert (fp.leq b131 b110))
(assert (fp.lt b113 b219))
(assert (fp.leq b131 b113))
(assert (fp.lt b116 b219))
(assert (fp.leq b131 b116))
(assert (fp.lt b119 b219))
(assert (fp.leq b131 b119))
(assert (fp.lt b122 b219))
(assert (fp.leq b131 b122))
(assert (fp.lt b125 b219))
(assert (fp.leq b131 b125))
(assert (fp.lt b128 b219))
(assert (fp.leq b131 b128))
; End constraints
(check-sat)
